column=9;
row=9;
left=[4, 0, 0, 2, 0, 3, 4, 3, 0];
right=[2, 0, 0, 0, 0, 3, 3, 2, 4];
top=[2, 0, 0, 3, 0, 5, 0, 0, 0];
bottom=[4, 0, 0, 2, 0, 0, 3, 0, 3];
Board=[|0,0,0,7,0,0,0,0,1|0,0,0,0,0,0,7,4,0|0,0,7,8,0,4,0,0,2|8,0,4,2,3,1,0,6,0|0,0,0,0,4,0,8,3,0|0,0,0,9,0,8,0,0,0|1,0,0,4,7,2,9,0,0|0,0,0,0,1,9,4,0,0|0,4,0,0,0,0,0,0,3|]